\ File written by Highs .lp filereader
minimize
 obj: +1 x1 +12 x2 +18 x3 +12 x4 +1 x5 +1 x6 +3 x7 +12 x8 +18 x9 +4 x10 +4 x11 +1 x12 +18 x13 +12 x14 +12 x15 +18 x16 +3 x17 +12 x18 +4 x19 +1 x20 +18 x21 +12 x22 +4 x23 +6 x24 +6 x25 +4 x26 +12 x27 +18 x28 +1 x29 +4 x30 +0 x31 +0 x32 +0 x33 +0 x34 +0 x35 +0 x36 +0 x37 
st
 con0: +3 x0 +24 x1 +36 x2 +12 x3 +6 x6 +24 x7 +18 x8 +12 x18 +3 x19 +18 x20 +12 x21 = +3
 con1: +12 x1 +36 x2 +36 x3 +4 x4 +12 x7 +36 x8 +12 x9 +4 x18 +36 x20 +12 x21 +12 x22 +12 x23 = +4
 con2: +18 x2 +36 x3 +6 x4 +6 x5 +18 x8 +12 x9 +18 x12 +36 x14 +18 x15 +18 x16 +36 x17 +18 x20 +12 x22 +6 x23 +6 x24 +36 x26 +18 x27 +6 x28 +12 x29 = +6
 con3: +3 x6 +12 x7 +18 x8 +4 x9 +1 x19 +12 x21 +6 x23 = +1
 con4: +3 x0 +12 x1 +18 x2 +3 x6 +12 x7 +12 x10 +3 x11 +18 x12 +12 x13 +12 x14 +18 x15 +12 x18 +3 x19 +18 x24 +12 x25 = +3
 con5: +24 x1 +72 x2 +36 x3 +24 x7 +36 x8 +12 x10 +72 x12 +24 x13 +72 x14 +72 x15 +12 x16 +36 x17 +12 x18 +36 x20 +12 x21 +36 x24 +12 x25 +36 x26 +36 x27 = +12
 con6: +6 x6 +24 x7 +18 x8 +3 x11 +24 x13 +36 x15 +12 x17 +3 x19 +12 x21 +12 x25 +18 x27 = +3
 con7: +4 x5 +12 x7 +36 x8 +12 x9 +12 x13 +36 x15 +36 x17 +12 x21 +12 x23 +4 x25 +36 x27 +12 x29 = +4
 con8: +1 x0 +12 x1 +3 x6 +18 x20 +12 x21 +4 x22 +6 x23 = +1
 con9: +3 x0 +24 x1 +6 x6 +12 x10 +3 x11 +36 x12 +24 x13 +18 x20 +12 x21 +12 x26 +18 x27 = +3
 con10: +12 x1 +4 x10 +36 x12 +12 x13 +36 x20 +12 x21 +12 x22 +12 x23 +36 x26 +36 x27 +4 x28 +12 x29 = +4
 con11: +3 x6 +1 x11 +12 x13 +12 x21 +6 x23 +18 x27 +4 x29 = +1
 con12: +1 x2 -1 x20 -1 x30 = +0
 con13: +1 x3 -1 x22 -1 x31 = +0
 con14: +1 x7 -1 x21 -1 x32 = +0
 con15: +1 x8 -1 x23 -1 x33 = +0
 con16: +1 x12 -1 x24 -1 x34 = +0
 con17: +1 x14 -1 x26 -1 x35 = +0
 con18: +1 x15 -1 x27 -1 x36 = +0
bounds
 +0 <= x0 <= +1
 +0 <= x1 <= +0
 +0 <= x2 <= +1
 +0 <= x3 <= +1
 +0 <= x4 <= +0
 +0 <= x5 <= +0
 +0 <= x6 <= +0
 +0 <= x7 <= +1
 +0 <= x8 <= +1
 +0 <= x9 <= +0
 +0 <= x10 <= +0
 +0 <= x11 <= +0
 +0 <= x12 <= +1
 +0 <= x13 <= +0
 +0 <= x14 <= +1
 +0 <= x15 <= +1
 +0 <= x16 <= +0
 +0 <= x17 <= +0
 +0 <= x18 <= +0
 +0 <= x19 <= +0
 +0 <= x20 <= +1
 +0 <= x21 <= +1
 +0 <= x22 <= +1
 +0 <= x23 <= +1
 +0 <= x24 <= +1
 +0 <= x25 <= +0
 +0 <= x26 <= +1
 +0 <= x27 <= +1
 +0 <= x28 <= +0
 +0 <= x29 <= +0
 +0 <= x30 <= +0
 +0 <= x31 <= +0
 +0 <= x32 <= +0
 +0 <= x33 <= +0
 +0 <= x34 <= +0
 +0 <= x35 <= +0
 +0 <= x36 <= +0
binary
general
semi
end
